(declare-const a Real)
(declare-const b Real)
(declare-const c Real)
(assert (> (+ a b) c))
(assert (> (+ a c) b))
(assert (> (+ b c) a))
(assert (= (+ a b c) 3))
(assert (> a 0))
(assert (> b 0))
(assert (> c 0))
(assert (not (<= (+ (pow (+ a b (* -1 c)) (/ 1 2)) (pow (+ a c (* -1 b)) (/ 1 2)) (pow (+ b c (* -1 a)) (/ 1 2)) (* (/ -1 2) a (pow b (/ -1 2))) (* (/ -1 2) a (pow c (/ -1 2))) (* (/ -1 2) b (pow a (/ -1 2))) (* (/ -1 2) b (pow c (/ -1 2))) (* (/ -1 2) c (pow a (/ -1 2))) (* (/ -1 2) c (pow b (/ -1 2)))) 0)))
(check-sat)
(get-model)
(exit)